data/question8.lp-pulp.mps
*SENSE:Minimize
NAME          MODEL
ROWS
 N  OBJ
 G  C0000000
 L  C0000001
 G  C0000002
 L  C0000003
 G  C0000004
 L  C0000005
 E  C0000006
 G  C0000007
 L  C0000008
 E  C0000009
 G  C0000010
 L  C0000011
 G  C0000012
 L  C0000013
 G  C0000014
 L  C0000015
 E  C0000016
 G  C0000017
 L  C0000018
 E  C0000019
 G  C0000020
 L  C0000021
 E  C0000022
 G  C0000023
 L  C0000024
 G  C0000025
 L  C0000026
 E  C0000027
 G  C0000028
 L  C0000029
 E  C0000030
 G  C0000031
 L  C0000032
 G  C0000033
 L  C0000034
 G  C0000035
 L  C0000036
 E  C0000037
 G  C0000038
 L  C0000039
 E  C0000040
COLUMNS
    X0000000  C0000006   7.200000000000e+03
    X0000000  C0000009   1.000000000000e+00
    X0000001  C0000000   1.000000000000e+00
    X0000001  C0000001   1.000000000000e+00
    X0000001  C0000009   1.000000000000e+00
    X0000001  OBJ        2.000000000000e+01
    X0000002  C0000002   1.000000000000e+00
    X0000002  C0000003   1.000000000000e+00
    X0000002  C0000009   1.000000000000e+00
    X0000002  OBJ        4.400000000000e+01
    X0000003  C0000004   1.000000000000e+00
    X0000003  C0000005   1.000000000000e+00
    X0000003  C0000009   1.000000000000e+00
    X0000003  OBJ        1.000000000000e+02
    X0000004  C0000016   7.200000000000e+03
    X0000004  C0000019   1.000000000000e+00
    X0000005  C0000010   1.000000000000e+00
    X0000005  C0000011   1.000000000000e+00
    X0000005  C0000019   1.000000000000e+00
    X0000005  OBJ        2.000000000000e+01
    X0000006  C0000012   1.000000000000e+00
    X0000006  C0000013   1.000000000000e+00
    X0000006  C0000019   1.000000000000e+00
    X0000006  OBJ        4.400000000000e+01
    X0000007  C0000014   1.000000000000e+00
    X0000007  C0000015   1.000000000000e+00
    X0000007  C0000019   1.000000000000e+00
    X0000007  OBJ        1.000000000000e+02
    X0000008  C0000027   7.200000000000e+03
    X0000008  C0000030   1.000000000000e+00
    X0000009  C0000020   1.000000000000e+00
    X0000009  C0000021   1.000000000000e+00
    X0000009  C0000030   1.000000000000e+00
    X0000009  OBJ        2.000000000000e+01
    X0000010  C0000023   1.000000000000e+00
    X0000010  C0000024   1.000000000000e+00
    X0000010  C0000030   1.000000000000e+00
    X0000010  OBJ        4.400000000000e+01
    X0000011  C0000025   1.000000000000e+00
    X0000011  C0000026   1.000000000000e+00
    X0000011  C0000030   1.000000000000e+00
    X0000011  OBJ        1.000000000000e+02
    X0000012  C0000037   7.200000000000e+03
    X0000012  C0000040   1.000000000000e+00
    X0000013  C0000031   1.000000000000e+00
    X0000013  C0000032   1.000000000000e+00
    X0000013  C0000040   1.000000000000e+00
    X0000013  OBJ        2.000000000000e+01
    X0000014  C0000033   1.000000000000e+00
    X0000014  C0000034   1.000000000000e+00
    X0000014  C0000040   1.000000000000e+00
    X0000014  OBJ        4.400000000000e+01
    X0000015  C0000035   1.000000000000e+00
    X0000015  C0000036   1.000000000000e+00
    X0000015  C0000040   1.000000000000e+00
    X0000015  OBJ        1.000000000000e+02
    X0000016  C0000006   1.000000000000e+00
    X0000016  C0000007   1.000000000000e+00
    X0000016  C0000008   1.000000000000e+00
    X0000016  C0000016  -1.000000000000e+00
    X0000017  C0000016   1.000000000000e+00
    X0000017  C0000017   1.000000000000e+00
    X0000017  C0000018   1.000000000000e+00
    X0000017  C0000027  -1.000000000000e+00
    X0000018  C0000027   1.000000000000e+00
    X0000018  C0000028   1.000000000000e+00
    X0000018  C0000029   1.000000000000e+00
    X0000018  C0000037  -1.000000000000e+00
    X0000019  C0000037   1.000000000000e+00
    X0000019  C0000038   1.000000000000e+00
    X0000019  C0000039   1.000000000000e+00
    MARK      'MARKER'                 'INTORG'
    X0000020  C0000001  -1.000000000000e+03
    MARK      'MARKER'                 'INTEND'
    MARK      'MARKER'                 'INTORG'
    X0000021  C0000003  -5.500000000000e+02
    MARK      'MARKER'                 'INTEND'
    MARK      'MARKER'                 'INTORG'
    X0000022  C0000005  -2.000000000000e+02
    MARK      'MARKER'                 'INTEND'
    MARK      'MARKER'                 'INTORG'
    X0000023  C0000011  -1.000000000000e+03
    MARK      'MARKER'                 'INTEND'
    MARK      'MARKER'                 'INTORG'
    X0000024  C0000013  -5.500000000000e+02
    MARK      'MARKER'                 'INTEND'
    MARK      'MARKER'                 'INTORG'
    X0000025  C0000015  -2.000000000000e+02
    MARK      'MARKER'                 'INTEND'
    MARK      'MARKER'                 'INTORG'
    X0000026  C0000022   1.000000000000e+00
    MARK      'MARKER'                 'INTEND'
    MARK      'MARKER'                 'INTORG'
    X0000027  C0000024  -5.500000000000e+02
    MARK      'MARKER'                 'INTEND'
    MARK      'MARKER'                 'INTORG'
    X0000028  C0000026  -2.000000000000e+02
    MARK      'MARKER'                 'INTEND'
    MARK      'MARKER'                 'INTORG'
    X0000029  C0000032  -1.000000000000e+03
    MARK      'MARKER'                 'INTEND'
    MARK      'MARKER'                 'INTORG'
    X0000030  C0000034  -5.500000000000e+02
    MARK      'MARKER'                 'INTEND'
    MARK      'MARKER'                 'INTORG'
    X0000031  C0000036  -2.000000000000e+02
    MARK      'MARKER'                 'INTEND'
RHS
    RHS       C0000000   0.000000000000e+00
    RHS       C0000001   0.000000000000e+00
    RHS       C0000002   0.000000000000e+00
    RHS       C0000003   0.000000000000e+00
    RHS       C0000004   0.000000000000e+00
    RHS       C0000005   0.000000000000e+00
    RHS       C0000006   1.440000000000e+06
    RHS       C0000007   0.000000000000e+00
    RHS       C0000008   1.440000000000e+06
    RHS       C0000009   1.000000000000e+03
    RHS       C0000010   0.000000000000e+00
    RHS       C0000011   0.000000000000e+00
    RHS       C0000012   0.000000000000e+00
    RHS       C0000013   0.000000000000e+00
    RHS       C0000014   0.000000000000e+00
    RHS       C0000015   0.000000000000e+00
    RHS       C0000016   0.000000000000e+00
    RHS       C0000017   0.000000000000e+00
    RHS       C0000018   1.440000000000e+06
    RHS       C0000019   1.600000000000e+03
    RHS       C0000020   0.000000000000e+00
    RHS       C0000021   0.000000000000e+00
    RHS       C0000022   0.000000000000e+00
    RHS       C0000023   0.000000000000e+00
    RHS       C0000024   0.000000000000e+00
    RHS       C0000025   0.000000000000e+00
    RHS       C0000026   0.000000000000e+00
    RHS       C0000027   0.000000000000e+00
    RHS       C0000028   0.000000000000e+00
    RHS       C0000029   1.440000000000e+06
    RHS       C0000030   6.000000000000e+02
    RHS       C0000031   0.000000000000e+00
    RHS       C0000032   0.000000000000e+00
    RHS       C0000033   0.000000000000e+00
    RHS       C0000034   0.000000000000e+00
    RHS       C0000035   0.000000000000e+00
    RHS       C0000036   0.000000000000e+00
    RHS       C0000037   0.000000000000e+00
    RHS       C0000038   0.000000000000e+00
    RHS       C0000039   1.440000000000e+06
    RHS       C0000040   9.000000000000e+02
BOUNDS
 UP BND       X0000000   7.500000000000e+01
 UP BND       X0000001   1.000000000000e+03
 UP BND       X0000002   5.500000000000e+02
 UP BND       X0000003   2.000000000000e+02
 UP BND       X0000004   7.500000000000e+01
 UP BND       X0000005   1.000000000000e+03
 UP BND       X0000006   5.500000000000e+02
 UP BND       X0000007   2.000000000000e+02
 UP BND       X0000008   7.500000000000e+01
 FX BND       X0000009   0.000000000000e+00
 UP BND       X0000010   5.500000000000e+02
 UP BND       X0000011   2.000000000000e+02
 UP BND       X0000012   7.500000000000e+01
 UP BND       X0000013   1.000000000000e+03
 UP BND       X0000014   5.500000000000e+02
 UP BND       X0000015   2.000000000000e+02
 FR BND       X0000016
 FR BND       X0000017
 FR BND       X0000018
 FR BND       X0000019
 BV BND       X0000020
 BV BND       X0000021
 BV BND       X0000022
 BV BND       X0000023
 BV BND       X0000024
 BV BND       X0000025
 BV BND       X0000026
 BV BND       X0000027
 BV BND       X0000028
 BV BND       X0000029
 BV BND       X0000030
 BV BND       X0000031
ENDATA
