data/question8.lp-pulp.sol
Optimal - objective value 103200.00000000
      0 C0000000            1000                       0
      1 C0000001               0                       0
      2 C0000002               0                       0
      3 C0000003            -550                       0
      4 C0000004               0                       0
      5 C0000005            -200                       0
      6 C0000006         1440000           -0.0027777778
      7 C0000007         1440000                       0
      8 C0000008         1440000                       0
      9 C0000009            1000                      20
     10 C0000010            1000                       0
     11 C0000011               0                       0
     12 C0000012             525                       0
     13 C0000013             -25                       0
     14 C0000014               0                       0
     15 C0000015            -200                       0
     16 C0000016  1.1641532e-010           -0.0027777778
     17 C0000017          900000                       0
     18 C0000018          900000                       0
     19 C0000019            1600                      44
     20 C0000020               0                       0
     21 C0000021               0                       0
     22 C0000022               0                       0
     23 C0000023             525                       0
     24 C0000024             -25                       0
     25 C0000025               0                       0
     26 C0000026            -200                       0
     27 C0000027  1.7462298e-010           -0.0027777778
     28 C0000028          360000                       0
     29 C0000029          360000                       0
     30 C0000030             600                      44
     31 C0000031             850                       0
     32 C0000032            -150                       0
     33 C0000033               0                       0
     34 C0000034            -550                       0
     35 C0000035               0                       0
     36 C0000036            -200                       0
     37 C0000037               0           -0.0027777778
     38 C0000038               0            0.0027777778
     39 C0000039               0                       0
     40 C0000040             900                      20
      0 X0000000 -4.2873991e-014                       0
      1 X0000001            1000                       0
      2 X0000002               0                      24
      3 X0000003               0                      80
      4 X0000004              75                     -24
      5 X0000005            1000                     -24
      6 X0000006             525                       0
      7 X0000007               0                      56
      8 X0000008              75                     -24
      9 X0000009               0                     -24
     10 X0000010             525                       0
     11 X0000011               0                      56
     12 X0000012              50                       0
     13 X0000013             850                       0
     14 X0000014               0                      24
     15 X0000015               0                      80
     16 X0000016         1440000                       0
     17 X0000017          900000                       0
     18 X0000018          360000                       0
     19 X0000019               0                       0
     20 X0000020               1                       0
     21 X0000021               1                       0
     22 X0000022               1                       0
     23 X0000023               1                       0
     24 X0000024               1                       0
     25 X0000025               1                       0
     26 X0000026               0                       0
     27 X0000027               1                       0
     28 X0000028               1                       0
     29 X0000029               1                       0
     30 X0000030               1                       0
     31 X0000031               1                       0
